Minimize
 obj: 8 x0 + 7 x1 + 6.5 x2 + 7 x3 + 3.5 x4 + 5.5 x5 + 3 x6 + 2 x7 + 8.5 x8 + 6 x9
Subject To
 c0: 1 x0 + 2 x1 + 2 x2 + 4 x3 + 2 x4 + 2 x5 + 2 x6 + 1 x7 + 2 x8 + 6 x9 >= 29
 c1: 4 x0 + 5 x1 + 1 x2 + 4 x3 + 6 x4 + 4 x5 + 5 x6 + 4 x7 + 4 x8 + 5 x9 >= 28
 c2: 4 x0 + 2 x1 + 4 x2 + 1 x3 + 2 x4 + 2 x5 + 4 x6 + 3 x7 + 6 x8 + 6 x9 >= 23
Bounds
 0 <= x0 <= 3
 0 <= x1 <= 1
 0 <= x2 <= 3
 0 <= x3 <= 1
 0 <= x4 <= 2
 0 <= x5 <= 7
 0 <= x6 <= 1
 0 <= x7 <= 3
 0 <= x8 <= 6
 0 <= x9 <= 3
General
 x0 x1 x3 x6 x7 x9
End
