Minimize
 obj: 6 x0 + 7.5 x1 + 2 x2 + 6 x3 + 5.5 x4 + 3.5 x5 + 8.5 x6 + 1 x7 + 8 x8 + 5 x9 + 1.5 x10
Subject To
 c0: 5 x0 + 2 x1 + 4 x2 + 1 x3 + 1 x4 + 6 x5 + 2 x6 + 2 x7 + 6 x8 + 4 x9 + 2 x10 >= 67
 c1: 5 x0 + 2 x1 + 3 x2 + 3 x3 + 6 x4 + 1 x5 + 6 x6 + 1 x7 + 5 x8 + 2 x9 + 5 x10 >= 87
 c2: 3 x0 + 2 x1 + 4 x2 + 3 x3 + 5 x4 + 6 x5 + 6 x6 + 1 x7 + 1 x8 + 6 x9 + 2 x10 >= 78
 c3: 3 x0 + 4 x1 + 2 x2 + 4 x3 + 4 x4 + 4 x5 + 2 x6 + 5 x7 + 2 x8 + 4 x9 + 1 x10 >= 36
Bounds
 0 <= x0 <= 8
 0 <= x1 <= 5
 0 <= x2 <= 1
 0 <= x3 <= 2
 0 <= x4 <= 8
 0 <= x5 <= 5
 0 <= x6 <= 7
 0 <= x7 <= 7
 0 <= x8 <= 1
 0 <= x9 <= 1
 0 <= x10 <= 2
General
 x0 x2 x3 x7 x8 x9
End
