Minimize
 obj: 9.5 x0 + 4 x1 + 4 x2 + 8.5 x3 + 9 x4 + 9.5 x5 + 8.5 x6
Subject To
 c0: 4 x0 + 6 x1 + 2 x2 + 2 x3 + 6 x4 + 2 x5 + 5 x6 >= 45
 c1: 6 x0 + 1 x1 + 6 x2 + 1 x3 + 2 x4 + 5 x5 + 1 x6 >= 28
 c2: 1 x0 + 3 x1 + 4 x2 + 5 x3 + 6 x4 + 4 x5 + 6 x6 >= 53
 c3: 4 x0 + 6 x1 + 5 x2 + 4 x3 + 2 x4 + 3 x5 + 1 x6 >= 18
 c4: 2 x0 + 4 x1 + 2 x2 + 3 x3 + 6 x4 + 4 x5 + 6 x6 >= 42
 c5: 4 x0 + 5 x1 + 4 x2 + 5 x3 + 3 x4 + 5 x5 + 5 x6 >= 49
Bounds
 0 <= x0 <= 2
 0 <= x1 <= 1
 0 <= x2 <= 6
 0 <= x3 <= 2
 0 <= x4 <= 8
 0 <= x5 <= 5
 0 <= x6 <= 4
General
 x1 x2 x4
End
