Minimize
 obj: 9 x0 + 8 x1 + 1 x2 + 3.5 x3 + 3.5 x4 + 2 x5 + 4 x6
Subject To
 c0: 1 x0 + 2 x1 + 5 x2 + 3 x3 + 1 x4 + 2 x5 + 2 x6 >= 12
 c1: 3 x0 + 3 x1 + 5 x2 + 5 x3 + 6 x4 + 2 x5 + 5 x6 >= 23
 c2: 6 x0 + 4 x1 + 5 x2 + 6 x3 + 4 x4 + 2 x5 + 4 x6 >= 15
 c3: 6 x0 + 4 x1 + 5 x2 + 3 x3 + 5 x4 + 2 x5 + 3 x6 >= 28
 c4: 6 x0 + 1 x1 + 1 x2 + 6 x3 + 4 x4 + 4 x5 + 6 x6 >= 33
Bounds
 0 <= x0 <= 1
 0 <= x1 <= 1
 0 <= x2 <= 1
 0 <= x3 <= 5
 0 <= x4 <= 3
 0 <= x5 <= 5
 0 <= x6 <= 1
General
 x0 x1 x2 x5 x6
End
