Minimize
 obj: 6 x0 + 7 x1 + 3 x2 + 9 x3 + 1.5 x4 + 3.5 x5 + 4.5 x6 + 3.5 x7 + 9 x8 + 9 x9 + 4 x10 + 6 x11
Subject To
 c0: 5 x0 + 1 x1 + 6 x2 + 6 x3 + 1 x4 + 3 x5 + 4 x6 + 1 x7 + 5 x8 + 4 x9 + 6 x10 + 5 x11 >= 47
 c1: 6 x0 + 4 x1 + 5 x2 + 3 x3 + 1 x4 + 4 x5 + 3 x6 + 5 x7 + 1 x8 + 6 x9 + 3 x10 + 1 x11 >= 68
 c2: 3 x0 + 5 x1 + 1 x2 + 4 x3 + 2 x4 + 1 x5 + 5 x6 + 2 x7 + 2 x8 + 5 x9 + 3 x10 + 1 x11 >= 48
 c3: 1 x0 + 3 x1 + 2 x2 + 6 x3 + 5 x4 + 5 x5 + 5 x6 + 5 x7 + 2 x8 + 3 x9 + 6 x10 + 3 x11 >= 96
 c4: 3 x0 + 3 x1 + 2 x2 + 3 x3 + 1 x4 + 5 x5 + 5 x6 + 3 x7 + 3 x8 + 1 x9 + 1 x10 + 3 x11 >= 34
Bounds
 0 <= x0 <= 5
 0 <= x1 <= 8
 0 <= x2 <= 7
 0 <= x3 <= 1
 0 <= x4 <= 5
 0 <= x5 <= 4
 0 <= x6 <= 8
 0 <= x7 <= 6
 0 <= x8 <= 8
 0 <= x9 <= 1
 0 <= x10 <= 1
 0 <= x11 <= 1
General
 x0 x1 x2 x3 x8 x9 x10 x11
End
