\ bin_20var_40con
\ 20 binary variables, 40 constraints

Minimize
 obj: 3 x10 + 4 x16 + 6 x1 + 6 x6 + 6 x17 + 9 x5 + 11 x14 + 11 x15 + 11 x18 + 12 x12 + 14 x8 + 14 x13 + 14 x19 + 15 x4 + 16 x2 + 16 x9 + 16 x11 + 16 x20 + 17 x3 + 19 x7

Subject To
 c1: 5 x2 + 6 x3 + 2 x6 + 7 x13 + 9 x15 + 1 x18 >= 20
 c2: 1 x2 + 4 x7 + 5 x8 + 9 x10 + 3 x11 + 5 x12 + 8 x13 + 8 x14 + 2 x15 + 1 x19 >= 22
 c3: 2 x1 + 3 x2 + 8 x3 + 5 x4 + 9 x8 + 5 x10 + 7 x14 + 8 x17 + 8 x18 >= 25
 c4: 5 x2 + 7 x5 + 6 x7 + 9 x13 + 5 x14 + 1 x17 + 5 x20 >= 23
 c5: 8 x5 + 6 x9 + 6 x15 + 9 x16 + 9 x19 + 7 x20 >= 29
 c6: 3 x1 + 8 x6 + 1 x7 + 3 x8 + 9 x11 + 10 x12 + 6 x13 + 2 x14 + 8 x17 + 2 x19 + 9 x20 >= 34
 c7: 8 x3 + 5 x5 + 6 x14 + 10 x20 >= 15
 c8: 2 x1 + 4 x9 + 5 x10 + 4 x11 + 2 x13 + 7 x14 + 2 x16 + 2 x18 + 8 x20 >= 14
 c9: 4 x1 + 9 x2 + 7 x3 + 10 x6 + 3 x7 + 3 x10 + 3 x11 + 2 x15 + 10 x19 >= 29
 c10: 5 x5 + 1 x8 + 8 x11 + 5 x15 + 9 x16 + 3 x17 + 2 x18 + 8 x20 >= 18
 c11: 10 x2 + 6 x4 + 10 x7 + 5 x8 + 5 x9 + 1 x10 + 7 x14 + 5 x15 + 1 x17 + 10 x19 + 1 x20 >= 39
 c12: 3 x5 + 2 x7 + 1 x8 + 5 x10 + 8 x11 + 1 x12 + 10 x18 + 6 x19 + 3 x20 >= 14
 c13: 3 x5 + 5 x6 + 8 x7 + 5 x9 + 6 x11 + 2 x12 + 8 x13 + 2 x14 + 3 x16 + 4 x18 + 7 x19 >= 34
 c14: 5 x1 + 10 x4 + 7 x6 + 6 x9 + 2 x13 + 4 x15 >= 18
 c15: 8 x3 + 5 x8 + 7 x11 + 2 x18 >= 9
 c16: 2 x2 + 4 x4 + 9 x10 + 3 x16 >= 9
 c17: 10 x4 + 7 x5 + 5 x8 + 1 x14 + 6 x17 + 4 x18 + 8 x19 >= 20
 c18: 4 x2 + 10 x4 + 1 x5 + 1 x7 + 6 x8 + 4 x12 + 3 x16 + 10 x17 + 4 x18 + 2 x19 + 9 x20 >= 24
 c19: 9 x1 + 5 x3 + 3 x5 + 2 x8 + 1 x9 + 3 x11 + 1 x14 + 6 x15 >= 13
 c20: 2 x1 + 2 x2 + 8 x5 + 8 x6 + 6 x7 + 9 x9 + 10 x12 + 2 x18 >= 29
 c21: 8 x1 + 7 x2 + 7 x10 + 2 x11 + 8 x14 + 8 x15 + 2 x17 + 2 x20 >= 24
 c22: 8 x3 + 9 x5 + 10 x9 + 7 x10 + 2 x11 + 2 x13 + 9 x18 + 4 x19 >= 30
 c23: 2 x7 + 6 x8 + 7 x11 + 6 x12 + 5 x13 + 6 x14 + 3 x15 >= 21
 c24: 1 x2 + 10 x3 + 9 x6 + 9 x9 + 6 x12 + 2 x14 + 7 x16 + 6 x17 + 7 x18 + 1 x19 + 5 x20 >= 40
 c25: 8 x4 + 4 x5 + 2 x7 + 6 x11 + 9 x17 + 6 x19 >= 12
 c26: 6 x1 + 6 x3 + 1 x5 + 3 x8 + 3 x9 + 10 x12 + 7 x13 + 2 x14 + 3 x17 + 1 x19 >= 15
 c27: 6 x3 + 10 x5 + 10 x6 + 2 x7 + 1 x11 + 3 x12 + 3 x13 + 10 x14 + 1 x15 >= 17
 c28: 9 x4 + 2 x9 + 6 x14 + 7 x15 + 2 x16 + 5 x20 >= 20
 c29: 4 x1 + 5 x2 + 4 x7 + 3 x8 + 5 x10 + 5 x13 + 6 x16 + 2 x17 + 1 x18 >= 18
 c30: 7 x1 + 1 x2 + 8 x5 + 2 x6 + 6 x7 + 10 x8 + 7 x12 + 10 x13 + 7 x16 >= 32
 c31: 6 x1 + 2 x6 + 7 x11 + 2 x13 + 4 x14 + 7 x15 >= 18
 c32: 3 x3 + 2 x6 + 9 x8 + 2 x10 + 9 x11 + 9 x13 + 4 x19 >= 24
 c33: 3 x4 + 10 x5 + 3 x8 + 2 x9 + 3 x18 + 8 x20 >= 16
 c34: 5 x2 + 5 x5 + 10 x8 + 1 x11 + 6 x13 + 9 x15 + 2 x17 + 5 x18 + 8 x19 + 8 x20 >= 20
 c35: 7 x3 + 8 x10 + 10 x17 + 9 x19 >= 22
 c36: 2 x1 + 9 x2 + 3 x3 + 1 x6 + 4 x7 + 8 x8 + 8 x9 + 9 x11 + 9 x15 + 10 x16 + 3 x19 >= 33
 c37: 6 x2 + 2 x10 + 6 x11 + 2 x13 + 9 x14 + 7 x19 >= 14
 c38: 6 x3 + 5 x5 + 7 x11 + 3 x15 + 10 x19 + 2 x20 >= 15
 c39: 6 x1 + 5 x3 + 3 x5 + 4 x6 + 6 x9 + 8 x11 + 4 x14 + 4 x17 >= 15
 c40: 6 x2 + 10 x4 + 3 x10 + 10 x17 + 7 x18 >= 14

Binary
 x1 x2 x3 x4 x5 x6 x7 x8 x9 x10
 x11 x12 x13 x14 x15 x16 x17 x18 x19 x20

End
