\ bin_20var_10con
\ 20 binary variables, 10 constraints

Minimize
 obj: 2 x20 + 4 x3 + 4 x6 + 4 x7 + 5 x4 + 5 x9 + 7 x13 + 7 x15 + 9 x5 + 9 x10 + 9 x16 + 9 x19 + 10 x2 + 10 x11 + 11 x14 + 16 x18 + 17 x17 + 18 x1 + 18 x8 + 20 x12

Subject To
 c1: 6 x1 + 3 x2 + 5 x9 + 3 x14 >= 10
 c2: 3 x1 + 9 x3 + 1 x4 + 6 x12 + 10 x14 + 9 x15 + 3 x18 >= 19
 c3: 4 x2 + 2 x7 + 6 x10 + 9 x12 + 7 x19 >= 18
 c4: 4 x1 + 5 x3 + 3 x6 + 2 x7 + 7 x8 + 1 x12 + 8 x14 + 4 x18 + 4 x19 >= 25
 c5: 5 x1 + 6 x2 + 9 x4 + 7 x5 + 9 x6 + 6 x7 + 1 x8 + 2 x10 + 5 x11 + 3 x12 + 10 x18 >= 29
 c6: 7 x11 + 10 x12 + 9 x14 + 2 x20 >= 15
 c7: 6 x1 + 7 x2 + 2 x4 + 6 x7 + 10 x9 + 6 x11 + 2 x12 + 5 x13 + 9 x14 + 5 x15 + 7 x19 >= 31
 c8: 3 x5 + 10 x7 + 10 x10 + 5 x11 + 7 x14 + 9 x17 + 1 x18 >= 24
 c9: 4 x8 + 9 x11 + 8 x14 + 3 x15 + 2 x17 + 5 x19 >= 18
 c10: 1 x3 + 1 x4 + 4 x8 + 8 x10 + 10 x11 + 2 x13 + 8 x15 + 7 x18 + 10 x20 >= 23

Binary
 x1 x2 x3 x4 x5 x6 x7 x8 x9 x10
 x11 x12 x13 x14 x15 x16 x17 x18 x19 x20

End
