\ bin_10var_10con
\ 10 binary variables, 10 constraints

Minimize
 obj: 3 x3 + 4 x5 + 6 x10 + 8 x1 + 8 x4 + 9 x7 + 10 x2 + 12 x9 + 13 x6 + 15 x8

Subject To
 c1: 10 x2 + 3 x4 + 9 x5 >= 10
 c2: 9 x5 + 4 x7 >= 6
 c3: 7 x1 + 5 x3 + 2 x4 + 4 x7 + 10 x10 >= 14
 c4: 8 x7 + 3 x8 >= 5
 c5: 5 x9 + 10 x10 >= 8
 c6: 8 x2 + 2 x4 + 1 x5 + 2 x6 + 3 x7 >= 10
 c7: 7 x2 + 7 x7 >= 8
 c8: 2 x1 + 9 x5 + 5 x6 + 6 x7 + 2 x9 >= 12
 c9: 9 x1 + 3 x5 + 9 x8 >= 8
 c10: 3 x2 + 9 x3 + 9 x4 + 1 x5 + 10 x9 >= 15

Binary
 x1 x2 x3 x4 x5 x6 x7 x8 x9 x10

End
