\ bin_20var_20con
\ 20 binary variables, 20 constraints

Minimize
 obj: 1 x6 + 2 x13 + 4 x7 + 4 x16 + 5 x5 + 5 x18 + 6 x10 + 8 x4 + 8 x9 + 8 x15 + 13 x1 + 13 x3 + 14 x8 + 15 x12 + 15 x17 + 15 x19 + 16 x2 + 17 x11 + 17 x20 + 18 x14

Subject To
 c1: 5 x3 + 4 x8 + 5 x9 + 9 x11 + 8 x13 + 4 x14 + 5 x15 + 8 x16 + 2 x17 + 5 x19 + 4 x20 >= 27
 c2: 3 x3 + 4 x5 + 2 x7 + 7 x8 + 7 x18 + 6 x20 >= 17
 c3: 10 x1 + 7 x2 + 8 x7 + 1 x13 + 6 x14 + 5 x17 + 7 x18 >= 27
 c4: 7 x1 + 6 x7 + 7 x8 + 3 x9 + 8 x16 + 3 x17 + 10 x18 + 9 x19 >= 17
 c5: 7 x1 + 6 x3 + 4 x5 + 8 x8 + 6 x14 + 6 x15 + 7 x16 + 5 x17 + 7 x18 + 5 x19 + 2 x20 >= 36
 c6: 2 x2 + 1 x8 + 1 x12 + 4 x18 >= 3
 c7: 5 x2 + 6 x4 + 3 x5 + 10 x8 + 10 x10 + 2 x11 + 3 x16 + 5 x18 + 2 x19 + 10 x20 >= 18
 c8: 10 x2 + 2 x3 + 10 x4 + 1 x5 + 6 x7 + 9 x10 + 7 x11 + 6 x12 + 2 x13 + 9 x19 + 6 x20 >= 22
 c9: 5 x3 + 10 x4 + 9 x7 + 8 x9 + 8 x12 + 7 x14 + 10 x15 + 5 x16 + 6 x17 + 4 x18 >= 26
 c10: 8 x1 + 6 x8 + 3 x11 + 8 x13 + 4 x15 + 6 x20 >= 23
 c11: 4 x1 + 7 x2 + 8 x7 + 9 x9 + 4 x18 + 8 x20 >= 23
 c12: 10 x1 + 6 x3 + 8 x4 + 9 x5 + 9 x7 + 6 x8 + 7 x10 + 9 x12 + 6 x15 >= 34
 c13: 9 x2 + 3 x4 + 4 x6 + 4 x8 + 8 x9 + 5 x10 + 10 x12 + 9 x16 + 10 x20 >= 29
 c14: 1 x1 + 1 x3 + 9 x5 + 5 x6 + 3 x7 + 8 x8 + 2 x9 + 1 x10 + 10 x12 + 5 x15 + 8 x17 >= 32
 c15: 7 x2 + 8 x4 + 2 x6 + 10 x9 + 1 x14 + 3 x16 + 3 x19 >= 20
 c16: 10 x3 + 7 x4 + 5 x5 + 10 x7 + 10 x8 + 1 x9 + 10 x12 + 2 x13 + 4 x14 + 4 x16 + 5 x19 >= 43
 c17: 3 x3 + 1 x6 + 7 x8 + 8 x18 >= 11
 c18: 2 x2 + 4 x8 + 5 x10 + 10 x12 + 4 x14 + 7 x17 + 2 x18 + 9 x20 >= 17
 c19: 10 x2 + 5 x3 + 8 x5 + 2 x6 + 8 x9 + 5 x10 + 7 x12 + 5 x13 + 9 x19 >= 36
 c20: 4 x1 + 10 x2 + 10 x3 + 1 x9 + 5 x11 + 10 x14 + 1 x19 >= 25

Binary
 x1 x2 x3 x4 x5 x6 x7 x8 x9 x10
 x11 x12 x13 x14 x15 x16 x17 x18 x19 x20

End
