\ bin_10var_20con
\ 10 binary variables, 20 constraints

Minimize
 obj: 1 x2 + 2 x7 + 3 x10 + 4 x3 + 8 x6 + 8 x8 + 10 x5 + 12 x4 + 16 x1 + 19 x9

Subject To
 c1: 9 x2 + 3 x8 >= 5
 c2: 10 x3 + 7 x5 + 4 x8 + 9 x9 >= 13
 c3: 8 x5 + 2 x6 + 4 x7 + 4 x8 >= 6
 c4: 10 x4 + 4 x9 + 1 x10 >= 5
 c5: 6 x1 + 2 x2 + 9 x4 + 4 x10 >= 11
 c6: 10 x3 + 10 x4 + 8 x6 + 4 x9 >= 17
 c7: 6 x2 + 7 x4 + 7 x6 + 8 x9 + 1 x10 >= 19
 c8: 6 x1 + 2 x2 + 4 x6 + 4 x7 >= 6
 c9: 8 x3 + 4 x7 + 2 x8 + 8 x10 >= 8
 c10: 2 x1 + 4 x9 >= 2
 c11: 1 x4 + 3 x7 + 7 x8 >= 3
 c12: 9 x4 + 8 x5 + 3 x6 + 4 x8 + 5 x10 >= 12
 c13: 1 x1 + 1 x3 + 10 x6 + 8 x9 + 9 x10 >= 17
 c14: 3 x2 + 2 x9 >= 3
 c15: 2 x4 + 10 x7 >= 5
 c16: 10 x1 + 10 x2 + 9 x6 + 6 x7 >= 15
 c17: 5 x4 + 7 x6 >= 5
 c18: 2 x5 + 1 x6 + 8 x7 + 10 x8 >= 8
 c19: 5 x4 + 3 x9 >= 4
 c20: 9 x2 + 5 x4 + 10 x5 + 9 x6 + 1 x10 >= 21

Binary
 x1 x2 x3 x4 x5 x6 x7 x8 x9 x10

End
